
Gurobi 9.1.2 (linux64, gurobi_cl) logging started Fri Jul 30 13:54:31 2021

Using license file /opt/gurobi/gurobi.lic
Set parameter TimeLimit to value 600
Set parameter Heuristics to value 0
Set parameter LogFile to value 912-Heuristics0-glass4-0.log

Gurobi Optimizer version 9.1.2 build v9.1.2rc0 (linux64)
Copyright (c) 2021, Gurobi Optimization, LLC

Read MPS format model from file /nfs/models/mip/glass4.mps.bz2
Reading time = 0.01 seconds
glass4: 396 rows, 322 columns, 1815 nonzeros
Thread count: 4 physical cores, 8 logical processors, using up to 8 threads
Optimize a model with 396 rows, 322 columns and 1815 nonzeros
Model fingerprint: 0x0a9d9037
Variable types: 20 continuous, 302 integer (0 binary)
Coefficient statistics:
  Matrix range     [1e+00, 8e+06]
  Objective range  [1e+00, 1e+06]
  Bounds range     [1e+00, 8e+02]
  RHS range        [1e+00, 8e+06]
Presolve removed 6 rows and 6 columns
Presolve time: 0.00s
Presolved: 390 rows, 316 columns, 1803 nonzeros
Variable types: 19 continuous, 297 integer (297 binary)

Root relaxation: objective 8.000024e+08, 72 iterations, 0.00 seconds

    Nodes    |    Current Node    |     Objective Bounds      |     Work
 Expl Unexpl |  Obj  Depth IntInf | Incumbent    BestBd   Gap | It/Node Time

     0     0 8.0000e+08    0   72          - 8.0000e+08      -     -    0s
     0     0 8.0000e+08    0   72          - 8.0000e+08      -     -    0s
     0     0 8.0000e+08    0   72          - 8.0000e+08      -     -    0s
     0     0 8.0000e+08    0   74          - 8.0000e+08      -     -    0s
     0     0 8.0000e+08    0   74          - 8.0000e+08      -     -    0s
     0     2 8.0000e+08    0   74          - 8.0000e+08      -     -    0s
*  374   849             185    3.700025e+09 8.0000e+08  78.4%   4.3    0s
*  503   849             153    2.700021e+09 8.0000e+08  70.4%   4.1    0s
*  875   849             148    2.200019e+09 8.0000e+08  63.6%   3.9    0s
* 2063  1561              95    2.115020e+09 8.0000e+08  62.2%   3.9    0s
* 2066  1504              95    2.072746e+09 8.0000e+08  61.4%   3.9    0s
* 2873  2035             131    2.033352e+09 8.0000e+08  60.7%   3.7    0s
* 5337  3397             140    2.028590e+09 8.0000e+08  60.6%   3.2    0s
* 5763  3496             133    2.000020e+09 8.0000e+08  60.0%   3.2    0s
* 5781  3496             143    2.000020e+09 8.0000e+08  60.0%   3.2    0s
* 5783  3496             142    2.000019e+09 8.0000e+08  60.0%   3.2    0s
* 7634  6036             122    2.000019e+09 8.0000e+08  60.0%   3.1    0s
* 8595  6017             134    2.000017e+09 8.0000e+08  60.0%   3.0    0s
* 9236  5726             124    1.980019e+09 8.0000e+08  59.6%   3.0    0s
*11570  7551             134    1.913907e+09 8.0000e+08  58.2%   3.0    0s
*12176  7607             115    1.911129e+09 8.0000e+08  58.1%   3.0    0s
*12198  7522              91    1.900017e+09 8.0000e+08  57.9%   3.0    0s
*12201  7501              89    1.900016e+09 8.0000e+08  57.9%   3.0    0s
*12820  8081             130    1.875019e+09 8.0000e+08  57.3%   3.0    0s
*15261  8757              84    1.850017e+09 8.0000e+08  56.8%   3.0    0s
*15264  8752              86    1.850017e+09 8.0000e+08  56.8%   3.0    0s
*23523 14147              85    1.833349e+09 8.0000e+08  56.4%   3.0    0s
*24930 14899              95    1.800019e+09 8.0000e+08  55.6%   3.0    0s
*24934 14899              97    1.800018e+09 8.0000e+08  55.6%   3.0    0s
*26052 14757             115    1.750017e+09 8.0000e+08  54.3%   3.0    0s
*28169 14809              51    1.700015e+09 8.0000e+08  52.9%   3.0    1s
H29760 14951                    1.700015e+09 8.0265e+08  52.8%   3.0    1s
 29939 15073 1.5000e+09   86   99 1.7000e+09 8.7329e+08  48.6%   3.2    5s
H29949 14325                    1.650015e+09 8.7585e+08  46.9%   3.2    5s
 30164 14477 1.0000e+09   51   96 1.6500e+09 8.9635e+08  45.7%   3.5   10s
*39903 16883             211    1.633349e+09 9.0001e+08  44.9%   4.5   12s
*58495 21172             211    1.633347e+09 9.0001e+08  44.9%   5.0   13s
*62528 21158             232    1.600014e+09 9.0001e+08  43.8%   5.1   13s
 87153 32434 1.4000e+09  199   26 1.6000e+09 9.7501e+08  39.1%   5.2   15s
*92108 37482             248    1.600014e+09 9.7501e+08  39.1%   5.2   15s
*99552 28144             244    1.500015e+09 9.7501e+08  35.0%   5.1   15s
*107925 32027             227    1.500014e+09 9.7501e+08  35.0%   5.1   16s
*111734 13399             234    1.200013e+09 1.0000e+09  16.7%   5.2   16s

Cutting planes:
  Gomory: 10
  Implied bound: 6
  MIR: 27
  Flow cover: 25
  RLT: 1
  Relax-and-lift: 10

Explored 124674 nodes (624377 simplex iterations) in 16.91 seconds
Thread count was 8 (of 8 available processors)

Solution count 10: 1.20001e+09 1.50001e+09 1.50002e+09 ... 1.70002e+09

Optimal solution found (tolerance 1.00e-04)
Best objective 1.200012600000e+09, best bound 1.200003800000e+09, gap 0.0007%
